c turning on binary mode checking
c parsing input formula with 202048 variables and 780990 clauses
c finished parsing, read 2162315 bytes from proof file
c detected empty clause; start verification via backward checking
c 3447 of 780990 clauses in core                            
c 1224 of 85072 lemmas in core using 25765 resolution steps
c 0 RAT lemmas in core; 165 redundant literals in core lemmas
s VERIFIED
c verification time: 0.948 seconds
